Route 1: 0 49 57 13 77 86 41 35 22 62 40 81 43 0
Route 2: 0 78 44 93 83 47 29 0
Route 3: 0 84 39 25 99 16 34 71 0
Route 4: 0 32 61 8 28 65 27 95 51 0
Route 5: 0 97 59 66 1 56 42 88 79 0
Route 6: 0 76 33 89 6 68 31 0
Route 7: 0 10 82 52 36 45 75 0
Route 8: 0 74 5 30 19 23 37 91 80 96 0
Route 9: 0 46 26 17 50 70 60 38 0
Route 10: 0 64 3 21 14 54 24 73 9 69 0
Route 11: 0 58 20 94 55 11 53 87 98 67 2 92 0
Route 12: 0 63 15 48 12 72 18 7 90 85 4 100 0
